experiment/data/lkh-res/Vrp-Set-X-n139/Vrp-Set-X-n139-lkh/0.lkh1.vrp
NAME : 0
COMMENT : CVRP Instance
TYPE : CVRP
DIMENSION : 139
EDGE_WEIGHT_TYPE : EUC_2D
CAPACITY : 106
NODE_COORD_SECTION
1	50000	50000
2	64500	700
3	72000	86700
4	51300	49900
5	20800	76600
6	97600	88400
7	99100	86400
8	59600	53200
9	76500	63200
10	27000	81800
11	22300	55200
12	87100	19300
13	82500	81600
14	12800	51800
15	80200	28100
16	78600	63500
17	43500	67500
18	97600	20400
19	56300	4300
20	87000	77400
21	34800	45800
22	56600	11300
23	29500	96900
24	22900	79000
25	51500	80500
26	48200	99800
27	24100	83000
28	4700	63300
29	59400	24400
30	63500	62600
31	59700	53800
32	8600	51600
33	44400	69700
34	76300	28100
35	1200	64900
36	18700	41700
37	63000	97500
38	93400	26300
39	8800	85500
40	76800	58200
41	91600	27700
42	4000	38700
43	88100	49000
44	32500	2000
45	77100	70000
46	30800	48200
47	39700	3000
48	93400	700
49	86900	72300
50	78800	89600
51	10000	59100
52	74600	58700
53	58400	72100
54	85900	99000
55	40300	42800
56	49300	6300
57	49600	45800
58	72800	64100
59	17400	44000
60	98600	51100
61	88700	58900
62	93100	74300
63	23400	66300
64	60800	26800
65	23900	15900
66	83200	70400
67	85700	77600
68	82800	43800
69	74400	10500
70	12200	94900
71	27000	59600
72	68700	39100
73	79000	75300
74	32300	41700
75	15200	58500
76	30800	26100
77	47200	31900
78	28200	6400
79	13800	34200
80	39100	45200
81	8700	41300
82	67600	36200
83	31400	10800
84	71300	12700
85	63800	53200
86	50700	79700
87	72000	26400
88	63000	72000
89	32600	56600
90	61000	37100
91	84700	83300
92	57600	42900
93	5800	29500
94	14500	10300
95	14100	97600
96	56400	71600
97	94600	88900
98	10000	52600
99	50300	49600
100	68400	81100
101	80000	40900
102	79400	19000
103	78400	33900
104	60300	20800
105	63700	30600
106	36900	15900
107	28800	8800
108	7000	16800
109	17700	92400
110	30000	51500
111	27500	46800
112	40800	21700
113	34300	99500
114	88900	85300
115	45500	84600
116	2000	64500
117	76000	14100
118	76300	78500
119	49400	72700
120	88900	1100
121	25400	37800
122	38100	43800
123	50800	25700
124	7000	63700
125	36100	61100
126	52900	95700
127	57000	72700
128	20400	11000
129	81300	13500
130	82000	99900
131	20100	6200
132	500	78700
133	4800	13500
134	19600	23700
135	88100	33300
136	76700	28400
137	70900	18900
138	42700	86400
139	53800	24800
DEMAND_SECTION
1	0
2	10
3	10
4	5
5	9
6	8
7	5
8	5
9	8
10	6
11	8
12	10
13	9
14	9
15	8
16	9
17	5
18	10
19	7
20	6
21	9
22	10
23	6
24	10
25	5
26	8
27	6
28	8
29	5
30	6
31	5
32	7
33	10
34	9
35	7
36	5
37	9
38	6
39	8
40	9
41	5
42	9
43	9
44	5
45	5
46	6
47	7
48	6
49	9
50	5
51	8
52	9
53	8
54	8
55	7
56	9
57	9
58	7
59	10
60	6
61	8
62	9
63	9
64	5
65	6
66	10
67	10
68	8
69	5
70	7
71	5
72	9
73	5
74	5
75	9
76	10
77	9
78	6
79	10
80	8
81	10
82	8
83	8
84	6
85	9
86	5
87	6
88	7
89	8
90	9
91	7
92	7
93	5
94	8
95	8
96	9
97	6
98	9
99	10
100	7
101	5
102	9
103	5
104	10
105	8
106	8
107	9
108	5
109	6
110	8
111	10
112	9
113	9
114	5
115	8
116	5
117	10
118	6
119	9
120	9
121	5
122	10
123	6
124	8
125	10
126	8
127	5
128	7
129	8
130	8
131	7
132	9
133	5
134	5
135	8
136	8
137	6
138	6
139	10
DEPOT_SECTION
1
-1
EOF
