experiment/data/lkh-res/Vrp-Set-X-n139/Vrp-Set-X-n139-lkh/0.lkh1.tour
NAME : 0.1369141.tour
COMMENT : Length = 1369141
COMMENT : Found by LKH-3 [Keld Helsgaun] Tue Apr  9 03:20:23 2024
TYPE : TOUR
DIMENSION : 148
TOUR_SECTION
1
82
103
135
41
38
18
48
120
129
117
69
84
29
64
99
148
72
101
68
43
60
61
62
20
67
49
66
16
9
142
76
134
65
128
131
94
133
108
93
42
81
79
121
74
55
145
80
122
21
46
111
36
59
32
98
14
11
110
140
4
8
31
85
52
40
58
88
53
127
96
119
33
17
146
100
3
50
130
54
97
6
7
114
91
13
118
73
45
30
147
71
75
51
124
28
116
35
132
39
70
95
109
10
125
141
57
77
112
106
83
107
78
44
47
56
19
2
22
144
123
139
104
137
102
12
15
136
34
87
105
90
92
143
89
63
5
24
27
23
113
26
37
126
138
115
25
86
-1
EOF
